##TITLE=TuneSampleName (TuneSampleID)
##JCAMP-DX=5.00
##DATA TYPE=MASS SPECTRUM
##DATA CLASS=PEAKTABLE
##DATE=N/A
##SOURCE REFERENCE=C:\Users\Desktop\DMS\1uM_b-GalCerC16-1_in_stdmixture\DMO_Neg.wiff
##OWNER=N/A
##IONIZATION MODE=Positive
##SPECTROMETER/DATA SYSTEM=SCIEX
##SCAN_RANGE=770.7,0.0
##XUNITS=m/z
##YUNITS=cps
##SCAN NUMBER=1
##BASE PEAK=1.0000
##BASE PEAK INTENSITY=1.000e+3
##RETENTION TIME=0.00
##TIC=1.000e+3
##NPOINTS=1
##XYDATA=(XY..XY)
7707.2643,1.000e+3
##SCAN NUMBER=2
##BASE PEAK=1.0000
##BASE PEAK INTENSITY=1.500e+3
##RETENTION TIME=0.09
##TIC=1.500e+3
##NPOINTS=1
##XYDATA=(XY..XY)
7707.2643,1.500e+3
##SCAN NUMBER=3
##BASE PEAK=1.0000
##BASE PEAK INTENSITY=1.160e+3
##RETENTION TIME=0.18
##TIC=1.160e+3
##NPOINTS=1
##XYDATA=(XY..XY)
7707.2643,1.160e+3
##SCAN NUMBER=4
##BASE PEAK=1.0000
##BASE PEAK INTENSITY=1.280e+3
##RETENTION TIME=0.27
##TIC=1.280e+3
##NPOINTS=1
##XYDATA=(XY..XY)
7707.2643,1.280e+3
##SCAN NUMBER=5
##BASE PEAK=1.0000
##BASE PEAK INTENSITY=1.040e+3
##RETENTION TIME=0.36
##TIC=1.040e+3
##NPOINTS=1
##XYDATA=(XY..XY)
7707.2643,1.040e+3
##SCAN NUMBER=6
##BASE PEAK=1.0000
##BASE PEAK INTENSITY=1.100e+3
##RETENTION TIME=0.45
##TIC=1.100e+3
##NPOINTS=1
##XYDATA=(XY..XY)
7707.2643,1.100e+3
##SCAN NUMBER=7
##BASE PEAK=1.0000
##BASE PEAK INTENSITY=7.000e+2
##RETENTION TIME=0.54
##TIC=7.000e+2
##NPOINTS=1
##XYDATA=(XY..XY)
7707.2643,7.000e+2
##SCAN NUMBER=8
##BASE PEAK=1.0000
##BASE PEAK INTENSITY=7.600e+2
##RETENTION TIME=0.63
##TIC=7.600e+2
##NPOINTS=1
##XYDATA=(XY..XY)
7707.2643,7.600e+2
##SCAN NUMBER=9
##BASE PEAK=1.0000
##BASE PEAK INTENSITY=1.000e+3
##RETENTION TIME=0.72
##TIC=1.000e+3
##NPOINTS=1
##XYDATA=(XY..XY)
7707.2643,1.000e+3
##SCAN NUMBER=10
##BASE PEAK=1.0000
##BASE PEAK INTENSITY=1.440e+3
##RETENTION TIME=0.81
##TIC=1.440e+3
##NPOINTS=1
##XYDATA=(XY..XY)
7707.2643,1.440e+3
##SCAN NUMBER=11
##BASE PEAK=1.0000
##BASE PEAK INTENSITY=1.220e+3
##RETENTION TIME=0.90
##TIC=1.220e+3
##NPOINTS=1
##XYDATA=(XY..XY)
7707.2643,1.220e+3
##SCAN NUMBER=12
##BASE PEAK=1.0000
##BASE PEAK INTENSITY=1.860e+3
##RETENTION TIME=0.99
##TIC=1.860e+3
##NPOINTS=1
##XYDATA=(XY..XY)
7707.2643,1.860e+3
##SCAN NUMBER=13
##BASE PEAK=1.0000
##BASE PEAK INTENSITY=1.960e+3
##RETENTION TIME=1.08
##TIC=1.960e+3
##NPOINTS=1
##XYDATA=(XY..XY)
7707.2643,1.960e+3
##SCAN NUMBER=14
##BASE PEAK=1.0000
##BASE PEAK INTENSITY=1.840e+3
##RETENTION TIME=1.17
##TIC=1.840e+3
##NPOINTS=1
##XYDATA=(XY..XY)
7707.2643,1.840e+3
##SCAN NUMBER=15
##BASE PEAK=1.0000
##BASE PEAK INTENSITY=2.480e+3
##RETENTION TIME=1.26
##TIC=2.480e+3
##NPOINTS=1
##XYDATA=(XY..XY)
7707.2643,2.480e+3
##SCAN NUMBER=16
##BASE PEAK=1.0000
##BASE PEAK INTENSITY=1.420e+3
##RETENTION TIME=1.35
##TIC=1.420e+3
##NPOINTS=1
##XYDATA=(XY..XY)
7707.2643,1.420e+3
##SCAN NUMBER=17
##BASE PEAK=1.0000
##BASE PEAK INTENSITY=1.700e+3
##RETENTION TIME=1.44
##TIC=1.700e+3
##NPOINTS=1
##XYDATA=(XY..XY)
7707.2643,1.700e+3
##SCAN NUMBER=18
##BASE PEAK=1.0000
##BASE PEAK INTENSITY=1.400e+3
##RETENTION TIME=1.53
##TIC=1.400e+3
##NPOINTS=1
##XYDATA=(XY..XY)
7707.2643,1.400e+3
##SCAN NUMBER=19
##BASE PEAK=1.0000
##BASE PEAK INTENSITY=1.620e+3
##RETENTION TIME=1.62
##TIC=1.620e+3
##NPOINTS=1
##XYDATA=(XY..XY)
7707.2643,1.620e+3
##SCAN NUMBER=20
##BASE PEAK=1.0000
##BASE PEAK INTENSITY=1.800e+3
##RETENTION TIME=1.71
##TIC=1.800e+3
##NPOINTS=1
##XYDATA=(XY..XY)
7707.2643,1.800e+3
##SCAN NUMBER=21
##BASE PEAK=1.0000
##BASE PEAK INTENSITY=1.840e+3
##RETENTION TIME=1.80
##TIC=1.840e+3
##NPOINTS=1
##XYDATA=(XY..XY)
7707.2643,1.840e+3
##SCAN NUMBER=22
##BASE PEAK=1.0000
##BASE PEAK INTENSITY=2.700e+3
##RETENTION TIME=1.89
##TIC=2.700e+3
##NPOINTS=1
##XYDATA=(XY..XY)
7707.2643,2.700e+3
##SCAN NUMBER=23
##BASE PEAK=1.0000
##BASE PEAK INTENSITY=3.000e+3
##RETENTION TIME=1.98
##TIC=3.000e+3
##NPOINTS=1
##XYDATA=(XY..XY)
7707.2643,3.000e+3
##SCAN NUMBER=24
##BASE PEAK=1.0000
##BASE PEAK INTENSITY=2.920e+3
##RETENTION TIME=2.07
##TIC=2.920e+3
##NPOINTS=1
##XYDATA=(XY..XY)
7707.2643,2.920e+3
##SCAN NUMBER=25
##BASE PEAK=1.0000
##BASE PEAK INTENSITY=2.500e+3
##RETENTION TIME=2.16
##TIC=2.500e+3
##NPOINTS=1
##XYDATA=(XY..XY)
7707.2643,2.500e+3
##SCAN NUMBER=26
##BASE PEAK=1.0000
##BASE PEAK INTENSITY=2.840e+3
##RETENTION TIME=2.25
##TIC=2.840e+3
##NPOINTS=1
##XYDATA=(XY..XY)
7707.2643,2.840e+3
##SCAN NUMBER=27
##BASE PEAK=1.0000
##BASE PEAK INTENSITY=2.880e+3
##RETENTION TIME=2.34
##TIC=2.880e+3
##NPOINTS=1
##XYDATA=(XY..XY)
7707.2643,2.880e+3
##SCAN NUMBER=28
##BASE PEAK=1.0000
##BASE PEAK INTENSITY=2.320e+3
##RETENTION TIME=2.43
##TIC=2.320e+3
##NPOINTS=1
##XYDATA=(XY..XY)
7707.2643,2.320e+3
##SCAN NUMBER=29
##BASE PEAK=1.0000
##BASE PEAK INTENSITY=1.860e+3
##RETENTION TIME=2.52
##TIC=1.860e+3
##NPOINTS=1
##XYDATA=(XY..XY)
7707.2643,1.860e+3
##SCAN NUMBER=30
##BASE PEAK=1.0000
##BASE PEAK INTENSITY=1.120e+3
##RETENTION TIME=2.61
##TIC=1.120e+3
##NPOINTS=1
##XYDATA=(XY..XY)
7707.2643,1.120e+3
##SCAN NUMBER=31
##BASE PEAK=1.0000
##BASE PEAK INTENSITY=1.480e+3
##RETENTION TIME=2.70
##TIC=1.480e+3
##NPOINTS=1
##XYDATA=(XY..XY)
7707.2643,1.480e+3
##SCAN NUMBER=32
##BASE PEAK=1.0000
##BASE PEAK INTENSITY=1.440e+3
##RETENTION TIME=2.79
##TIC=1.440e+3
##NPOINTS=1
##XYDATA=(XY..XY)
7707.2643,1.440e+3
##SCAN NUMBER=33
##BASE PEAK=1.0000
##BASE PEAK INTENSITY=1.620e+3
##RETENTION TIME=2.88
##TIC=1.620e+3
##NPOINTS=1
##XYDATA=(XY..XY)
7707.2643,1.620e+3
##SCAN NUMBER=34
##BASE PEAK=1.0000
##BASE PEAK INTENSITY=2.320e+3
##RETENTION TIME=2.97
##TIC=2.320e+3
##NPOINTS=1
##XYDATA=(XY..XY)
7707.2643,2.320e+3
##SCAN NUMBER=35
##BASE PEAK=1.0000
##BASE PEAK INTENSITY=2.420e+3
##RETENTION TIME=3.06
##TIC=2.420e+3
##NPOINTS=1
##XYDATA=(XY..XY)
7707.2643,2.420e+3
##SCAN NUMBER=36
##BASE PEAK=1.0000
##BASE PEAK INTENSITY=2.200e+3
##RETENTION TIME=3.15
##TIC=2.200e+3
##NPOINTS=1
##XYDATA=(XY..XY)
7707.2643,2.200e+3
##SCAN NUMBER=37
##BASE PEAK=1.0000
##BASE PEAK INTENSITY=1.920e+3
##RETENTION TIME=3.24
##TIC=1.920e+3
##NPOINTS=1
##XYDATA=(XY..XY)
7707.2643,1.920e+3
##SCAN NUMBER=38
##BASE PEAK=1.0000
##BASE PEAK INTENSITY=2.360e+3
##RETENTION TIME=3.33
##TIC=2.360e+3
##NPOINTS=1
##XYDATA=(XY..XY)
7707.2643,2.360e+3
##SCAN NUMBER=39
##BASE PEAK=1.0000
##BASE PEAK INTENSITY=2.280e+3
##RETENTION TIME=3.42
##TIC=2.280e+3
##NPOINTS=1
##XYDATA=(XY..XY)
7707.2643,2.280e+3
##SCAN NUMBER=40
##BASE PEAK=1.0000
##BASE PEAK INTENSITY=1.820e+3
##RETENTION TIME=3.51
##TIC=1.820e+3
##NPOINTS=1
##XYDATA=(XY..XY)
7707.2643,1.820e+3
##SCAN NUMBER=41
##BASE PEAK=1.0000
##BASE PEAK INTENSITY=2.040e+3
##RETENTION TIME=3.60
##TIC=2.040e+3
##NPOINTS=1
##XYDATA=(XY..XY)
7707.2643,2.040e+3
##SCAN NUMBER=42
##BASE PEAK=1.0000
##BASE PEAK INTENSITY=1.760e+3
##RETENTION TIME=3.69
##TIC=1.760e+3
##NPOINTS=1
##XYDATA=(XY..XY)
7707.2643,1.760e+3
##SCAN NUMBER=43
##BASE PEAK=1.0000
##BASE PEAK INTENSITY=2.820e+3
##RETENTION TIME=3.78
##TIC=2.820e+3
##NPOINTS=1
##XYDATA=(XY..XY)
7707.2643,2.820e+3
##SCAN NUMBER=44
##BASE PEAK=1.0000
##BASE PEAK INTENSITY=3.180e+3
##RETENTION TIME=3.87
##TIC=3.180e+3
##NPOINTS=1
##XYDATA=(XY..XY)
7707.2643,3.180e+3
##SCAN NUMBER=45
##BASE PEAK=1.0000
##BASE PEAK INTENSITY=2.960e+3
##RETENTION TIME=3.96
##TIC=2.960e+3
##NPOINTS=1
##XYDATA=(XY..XY)
7707.2643,2.960e+3
##SCAN NUMBER=46
##BASE PEAK=1.0000
##BASE PEAK INTENSITY=3.480e+3
##RETENTION TIME=4.05
##TIC=3.480e+3
##NPOINTS=1
##XYDATA=(XY..XY)
7707.2643,3.480e+3
##SCAN NUMBER=47
##BASE PEAK=1.0000
##BASE PEAK INTENSITY=4.180e+3
##RETENTION TIME=4.14
##TIC=4.180e+3
##NPOINTS=1
##XYDATA=(XY..XY)
7707.2643,4.180e+3
##SCAN NUMBER=48
##BASE PEAK=1.0000
##BASE PEAK INTENSITY=4.400e+3
##RETENTION TIME=4.23
##TIC=4.400e+3
##NPOINTS=1
##XYDATA=(XY..XY)
7707.2643,4.400e+3
##SCAN NUMBER=49
##BASE PEAK=1.0000
##BASE PEAK INTENSITY=5.140e+3
##RETENTION TIME=4.32
##TIC=5.140e+3
##NPOINTS=1
##XYDATA=(XY..XY)
7707.2643,5.140e+3
##SCAN NUMBER=50
##BASE PEAK=1.0000
##BASE PEAK INTENSITY=4.300e+3
##RETENTION TIME=4.41
##TIC=4.300e+3
##NPOINTS=1
##XYDATA=(XY..XY)
7707.2643,4.300e+3
##SCAN NUMBER=51
##BASE PEAK=1.0000
##BASE PEAK INTENSITY=3.900e+3
##RETENTION TIME=4.50
##TIC=3.900e+3
##NPOINTS=1
##XYDATA=(XY..XY)
7707.2643,3.900e+3
##SCAN NUMBER=52
##BASE PEAK=1.0000
##BASE PEAK INTENSITY=3.740e+3
##RETENTION TIME=4.59
##TIC=3.740e+3
##NPOINTS=1
##XYDATA=(XY..XY)
7707.2643,3.740e+3
##SCAN NUMBER=53
##BASE PEAK=1.0000
##BASE PEAK INTENSITY=4.760e+3
##RETENTION TIME=4.68
##TIC=4.760e+3
##NPOINTS=1
##XYDATA=(XY..XY)
7707.2643,4.760e+3
##SCAN NUMBER=54
##BASE PEAK=1.0000
##BASE PEAK INTENSITY=3.780e+3
##RETENTION TIME=4.77
##TIC=3.780e+3
##NPOINTS=1
##XYDATA=(XY..XY)
7707.2643,3.780e+3
##SCAN NUMBER=55
##BASE PEAK=1.0000
##BASE PEAK INTENSITY=6.360e+3
##RETENTION TIME=4.86
##TIC=6.360e+3
##NPOINTS=1
##XYDATA=(XY..XY)
7707.2643,6.360e+3
##SCAN NUMBER=56
##BASE PEAK=1.0000
##BASE PEAK INTENSITY=4.800e+3
##RETENTION TIME=4.95
##TIC=4.800e+3
##NPOINTS=1
##XYDATA=(XY..XY)
7707.2643,4.800e+3
##SCAN NUMBER=57
##BASE PEAK=1.0000
##BASE PEAK INTENSITY=6.760e+3
##RETENTION TIME=5.04
##TIC=6.760e+3
##NPOINTS=1
##XYDATA=(XY..XY)
7707.2643,6.760e+3
##SCAN NUMBER=58
##BASE PEAK=1.0000
##BASE PEAK INTENSITY=5.980e+3
##RETENTION TIME=5.13
##TIC=5.980e+3
##NPOINTS=1
##XYDATA=(XY..XY)
7707.2643,5.980e+3
##SCAN NUMBER=59
##BASE PEAK=1.0000
##BASE PEAK INTENSITY=7.760e+3
##RETENTION TIME=5.22
##TIC=7.760e+3
##NPOINTS=1
##XYDATA=(XY..XY)
7707.2643,7.760e+3
##SCAN NUMBER=60
##BASE PEAK=1.0000
##BASE PEAK INTENSITY=8.540e+3
##RETENTION TIME=5.31
##TIC=8.540e+3
##NPOINTS=1
##XYDATA=(XY..XY)
7707.2643,8.540e+3
##SCAN NUMBER=61
##BASE PEAK=1.0000
##BASE PEAK INTENSITY=8.200e+3
##RETENTION TIME=5.40
##TIC=8.200e+3
##NPOINTS=1
##XYDATA=(XY..XY)
7707.2643,8.200e+3
##SCAN NUMBER=62
##BASE PEAK=1.0000
##BASE PEAK INTENSITY=9.460e+3
##RETENTION TIME=5.49
##TIC=9.460e+3
##NPOINTS=1
##XYDATA=(XY..XY)
7707.2643,9.460e+3
##SCAN NUMBER=63
##BASE PEAK=1.0000
##BASE PEAK INTENSITY=7.600e+3
##RETENTION TIME=5.58
##TIC=7.600e+3
##NPOINTS=1
##XYDATA=(XY..XY)
7707.2643,7.600e+3
##SCAN NUMBER=64
##BASE PEAK=1.0000
##BASE PEAK INTENSITY=8.920e+3
##RETENTION TIME=5.67
##TIC=8.920e+3
##NPOINTS=1
##XYDATA=(XY..XY)
7707.2643,8.920e+3
##SCAN NUMBER=65
##BASE PEAK=1.0000
##BASE PEAK INTENSITY=8.620e+3
##RETENTION TIME=5.76
##TIC=8.620e+3
##NPOINTS=1
##XYDATA=(XY..XY)
7707.2643,8.620e+3
##SCAN NUMBER=66
##BASE PEAK=1.0000
##BASE PEAK INTENSITY=9.780e+3
##RETENTION TIME=5.85
##TIC=9.780e+3
##NPOINTS=1
##XYDATA=(XY..XY)
7707.2643,9.780e+3
##SCAN NUMBER=67
##BASE PEAK=1.0000
##BASE PEAK INTENSITY=1.114e+4
##RETENTION TIME=5.94
##TIC=1.114e+4
##NPOINTS=1
##XYDATA=(XY..XY)
7707.2643,1.114e+4
##SCAN NUMBER=68
##BASE PEAK=1.0000
##BASE PEAK INTENSITY=1.086e+4
##RETENTION TIME=6.03
##TIC=1.086e+4
##NPOINTS=1
##XYDATA=(XY..XY)
7707.2643,1.086e+4
##SCAN NUMBER=69
##BASE PEAK=1.0000
##BASE PEAK INTENSITY=1.162e+4
##RETENTION TIME=6.12
##TIC=1.162e+4
##NPOINTS=1
##XYDATA=(XY..XY)
7707.2643,1.162e+4
##SCAN NUMBER=70
##BASE PEAK=1.0000
##BASE PEAK INTENSITY=1.262e+4
##RETENTION TIME=6.21
##TIC=1.262e+4
##NPOINTS=1
##XYDATA=(XY..XY)
7707.2643,1.262e+4
##SCAN NUMBER=71
##BASE PEAK=1.0000
##BASE PEAK INTENSITY=1.102e+4
##RETENTION TIME=6.30
##TIC=1.102e+4
##NPOINTS=1
##XYDATA=(XY..XY)
7707.2643,1.102e+4
##SCAN NUMBER=72
##BASE PEAK=1.0000
##BASE PEAK INTENSITY=1.038e+4
##RETENTION TIME=6.39
##TIC=1.038e+4
##NPOINTS=1
##XYDATA=(XY..XY)
7707.2643,1.038e+4
##SCAN NUMBER=73
##BASE PEAK=1.0000
##BASE PEAK INTENSITY=1.202e+4
##RETENTION TIME=6.48
##TIC=1.202e+4
##NPOINTS=1
##XYDATA=(XY..XY)
7707.2643,1.202e+4
##SCAN NUMBER=74
##BASE PEAK=1.0000
##BASE PEAK INTENSITY=9.640e+3
##RETENTION TIME=6.57
##TIC=9.640e+3
##NPOINTS=1
##XYDATA=(XY..XY)
7707.2643,9.640e+3
##SCAN NUMBER=75
##BASE PEAK=1.0000
##BASE PEAK INTENSITY=1.196e+4
##RETENTION TIME=6.66
##TIC=1.196e+4
##NPOINTS=1
##XYDATA=(XY..XY)
7707.2643,1.196e+4
##SCAN NUMBER=76
##BASE PEAK=1.0000
##BASE PEAK INTENSITY=1.114e+4
##RETENTION TIME=6.75
##TIC=1.114e+4
##NPOINTS=1
##XYDATA=(XY..XY)
7707.2643,1.114e+4
##SCAN NUMBER=77
##BASE PEAK=1.0000
##BASE PEAK INTENSITY=9.580e+3
##RETENTION TIME=6.84
##TIC=9.580e+3
##NPOINTS=1
##XYDATA=(XY..XY)
7707.2643,9.580e+3
##SCAN NUMBER=78
##BASE PEAK=1.0000
##BASE PEAK INTENSITY=1.134e+4
##RETENTION TIME=6.93
##TIC=1.134e+4
##NPOINTS=1
##XYDATA=(XY..XY)
7707.2643,1.134e+4
##SCAN NUMBER=79
##BASE PEAK=1.0000
##BASE PEAK INTENSITY=1.000e+4
##RETENTION TIME=7.02
##TIC=1.000e+4
##NPOINTS=1
##XYDATA=(XY..XY)
7707.2643,1.000e+4
##SCAN NUMBER=80
##BASE PEAK=1.0000
##BASE PEAK INTENSITY=1.330e+4
##RETENTION TIME=7.11
##TIC=1.330e+4
##NPOINTS=1
##XYDATA=(XY..XY)
7707.2643,1.330e+4
##SCAN NUMBER=81
##BASE PEAK=1.0000
##BASE PEAK INTENSITY=1.132e+4
##RETENTION TIME=7.20
##TIC=1.132e+4
##NPOINTS=1
##XYDATA=(XY..XY)
7707.2643,1.132e+4
##SCAN NUMBER=82
##BASE PEAK=1.0000
##BASE PEAK INTENSITY=1.250e+4
##RETENTION TIME=7.29
##TIC=1.250e+4
##NPOINTS=1
##XYDATA=(XY..XY)
7707.2643,1.250e+4
##SCAN NUMBER=83
##BASE PEAK=1.0000
##BASE PEAK INTENSITY=1.238e+4
##RETENTION TIME=7.38
##TIC=1.238e+4
##NPOINTS=1
##XYDATA=(XY..XY)
7707.2643,1.238e+4
##SCAN NUMBER=84
##BASE PEAK=1.0000
##BASE PEAK INTENSITY=1.278e+4
##RETENTION TIME=7.47
##TIC=1.278e+4
##NPOINTS=1
##XYDATA=(XY..XY)
7707.2643,1.278e+4
##SCAN NUMBER=85
##BASE PEAK=1.0000
##BASE PEAK INTENSITY=1.210e+4
##RETENTION TIME=7.56
##TIC=1.210e+4
##NPOINTS=1
##XYDATA=(XY..XY)
7707.2643,1.210e+4
##SCAN NUMBER=86
##BASE PEAK=1.0000
##BASE PEAK INTENSITY=9.320e+3
##RETENTION TIME=7.65
##TIC=9.320e+3
##NPOINTS=1
##XYDATA=(XY..XY)
7707.2643,9.320e+3
##SCAN NUMBER=87
##BASE PEAK=1.0000
##BASE PEAK INTENSITY=9.240e+3
##RETENTION TIME=7.74
##TIC=9.240e+3
##NPOINTS=1
##XYDATA=(XY..XY)
7707.2643,9.240e+3
##SCAN NUMBER=88
##BASE PEAK=1.0000
##BASE PEAK INTENSITY=1.012e+4
##RETENTION TIME=7.83
##TIC=1.012e+4
##NPOINTS=1
##XYDATA=(XY..XY)
7707.2643,1.012e+4
##SCAN NUMBER=89
##BASE PEAK=1.0000
##BASE PEAK INTENSITY=9.620e+3
##RETENTION TIME=7.92
##TIC=9.620e+3
##NPOINTS=1
##XYDATA=(XY..XY)
7707.2643,9.620e+3
##SCAN NUMBER=90
##BASE PEAK=1.0000
##BASE PEAK INTENSITY=9.000e+3
##RETENTION TIME=8.01
##TIC=9.000e+3
##NPOINTS=1
##XYDATA=(XY..XY)
7707.2643,9.000e+3
##SCAN NUMBER=91
##BASE PEAK=1.0000
##BASE PEAK INTENSITY=1.006e+4
##RETENTION TIME=8.10
##TIC=1.006e+4
##NPOINTS=1
##XYDATA=(XY..XY)
7707.2643,1.006e+4
##SCAN NUMBER=92
##BASE PEAK=1.0000
##BASE PEAK INTENSITY=1.126e+4
##RETENTION TIME=8.19
##TIC=1.126e+4
##NPOINTS=1
##XYDATA=(XY..XY)
7707.2643,1.126e+4
##SCAN NUMBER=93
##BASE PEAK=1.0000
##BASE PEAK INTENSITY=1.090e+4
##RETENTION TIME=8.28
##TIC=1.090e+4
##NPOINTS=1
##XYDATA=(XY..XY)
7707.2643,1.090e+4
##SCAN NUMBER=94
##BASE PEAK=1.0000
##BASE PEAK INTENSITY=1.330e+4
##RETENTION TIME=8.37
##TIC=1.330e+4
##NPOINTS=1
##XYDATA=(XY..XY)
7707.2643,1.330e+4
##SCAN NUMBER=95
##BASE PEAK=1.0000
##BASE PEAK INTENSITY=1.340e+4
##RETENTION TIME=8.46
##TIC=1.340e+4
##NPOINTS=1
##XYDATA=(XY..XY)
7707.2643,1.340e+4
##SCAN NUMBER=96
##BASE PEAK=1.0000
##BASE PEAK INTENSITY=9.960e+3
##RETENTION TIME=8.55
##TIC=9.960e+3
##NPOINTS=1
##XYDATA=(XY..XY)
7707.2643,9.960e+3
##SCAN NUMBER=97
##BASE PEAK=1.0000
##BASE PEAK INTENSITY=1.054e+4
##RETENTION TIME=8.64
##TIC=1.054e+4
##NPOINTS=1
##XYDATA=(XY..XY)
7707.2643,1.054e+4
##SCAN NUMBER=98
##BASE PEAK=1.0000
##BASE PEAK INTENSITY=1.042e+4
##RETENTION TIME=8.73
##TIC=1.042e+4
##NPOINTS=1
##XYDATA=(XY..XY)
7707.2643,1.042e+4
##SCAN NUMBER=99
##BASE PEAK=1.0000
##BASE PEAK INTENSITY=1.044e+4
##RETENTION TIME=8.82
##TIC=1.044e+4
##NPOINTS=1
##XYDATA=(XY..XY)
7707.2643,1.044e+4
##SCAN NUMBER=100
##BASE PEAK=1.0000
##BASE PEAK INTENSITY=1.260e+4
##RETENTION TIME=8.91
##TIC=1.260e+4
##NPOINTS=1
##XYDATA=(XY..XY)
7707.2643,1.260e+4
##SCAN NUMBER=101
##BASE PEAK=1.0000
##BASE PEAK INTENSITY=1.294e+4
##RETENTION TIME=9.00
##TIC=1.294e+4
##NPOINTS=1
##XYDATA=(XY..XY)
7707.2643,1.294e+4
##SCAN NUMBER=102
##BASE PEAK=1.0000
##BASE PEAK INTENSITY=1.106e+4
##RETENTION TIME=9.09
##TIC=1.106e+4
##NPOINTS=1
##XYDATA=(XY..XY)
7707.2643,1.106e+4
##SCAN NUMBER=103
##BASE PEAK=1.0000
##BASE PEAK INTENSITY=9.940e+3
##RETENTION TIME=9.18
##TIC=9.940e+3
##NPOINTS=1
##XYDATA=(XY..XY)
7707.2643,9.940e+3
##SCAN NUMBER=104
##BASE PEAK=1.0000
##BASE PEAK INTENSITY=1.120e+4
##RETENTION TIME=9.27
##TIC=1.120e+4
##NPOINTS=1
##XYDATA=(XY..XY)
7707.2643,1.120e+4
##SCAN NUMBER=105
##BASE PEAK=1.0000
##BASE PEAK INTENSITY=1.010e+4
##RETENTION TIME=9.36
##TIC=1.010e+4
##NPOINTS=1
##XYDATA=(XY..XY)
7707.2643,1.010e+4
##SCAN NUMBER=106
##BASE PEAK=1.0000
##BASE PEAK INTENSITY=1.038e+4
##RETENTION TIME=9.45
##TIC=1.038e+4
##NPOINTS=1
##XYDATA=(XY..XY)
7707.2643,1.038e+4
##SCAN NUMBER=107
##BASE PEAK=1.0000
##BASE PEAK INTENSITY=1.062e+4
##RETENTION TIME=9.54
##TIC=1.062e+4
##NPOINTS=1
##XYDATA=(XY..XY)
7707.2643,1.062e+4
##SCAN NUMBER=108
##BASE PEAK=1.0000
##BASE PEAK INTENSITY=1.126e+4
##RETENTION TIME=9.63
##TIC=1.126e+4
##NPOINTS=1
##XYDATA=(XY..XY)
7707.2643,1.126e+4
##SCAN NUMBER=109
##BASE PEAK=1.0000
##BASE PEAK INTENSITY=9.380e+3
##RETENTION TIME=9.72
##TIC=9.380e+3
##NPOINTS=1
##XYDATA=(XY..XY)
7707.2643,9.380e+3
##SCAN NUMBER=110
##BASE PEAK=1.0000
##BASE PEAK INTENSITY=1.168e+4
##RETENTION TIME=9.81
##TIC=1.168e+4
##NPOINTS=1
##XYDATA=(XY..XY)
7707.2643,1.168e+4
##SCAN NUMBER=111
##BASE PEAK=1.0000
##BASE PEAK INTENSITY=1.046e+4
##RETENTION TIME=9.90
##TIC=1.046e+4
##NPOINTS=1
##XYDATA=(XY..XY)
7707.2643,1.046e+4
##SCAN NUMBER=112
##BASE PEAK=1.0000
##BASE PEAK INTENSITY=1.014e+4
##RETENTION TIME=9.99
##TIC=1.014e+4
##NPOINTS=1
##XYDATA=(XY..XY)
7707.2643,1.014e+4
##SCAN NUMBER=113
##BASE PEAK=1.0000
##BASE PEAK INTENSITY=9.780e+3
##RETENTION TIME=10.08
##TIC=9.780e+3
##NPOINTS=1
##XYDATA=(XY..XY)
7707.2643,9.780e+3
##SCAN NUMBER=114
##BASE PEAK=1.0000
##BASE PEAK INTENSITY=9.460e+3
##RETENTION TIME=10.17
##TIC=9.460e+3
##NPOINTS=1
##XYDATA=(XY..XY)
7707.2643,9.460e+3
##SCAN NUMBER=115
##BASE PEAK=1.0000
##BASE PEAK INTENSITY=1.074e+4
##RETENTION TIME=10.26
##TIC=1.074e+4
##NPOINTS=1
##XYDATA=(XY..XY)
7707.2643,1.074e+4
##SCAN NUMBER=116
##BASE PEAK=1.0000
##BASE PEAK INTENSITY=1.200e+4
##RETENTION TIME=10.35
##TIC=1.200e+4
##NPOINTS=1
##XYDATA=(XY..XY)
7707.2643,1.200e+4
##SCAN NUMBER=117
##BASE PEAK=1.0000
##BASE PEAK INTENSITY=1.074e+4
##RETENTION TIME=10.44
##TIC=1.074e+4
##NPOINTS=1
##XYDATA=(XY..XY)
7707.2643,1.074e+4
##SCAN NUMBER=118
##BASE PEAK=1.0000
##BASE PEAK INTENSITY=9.280e+3
##RETENTION TIME=10.53
##TIC=9.280e+3
##NPOINTS=1
##XYDATA=(XY..XY)
7707.2643,9.280e+3
##SCAN NUMBER=119
##BASE PEAK=1.0000
##BASE PEAK INTENSITY=1.040e+4
##RETENTION TIME=10.62
##TIC=1.040e+4
##NPOINTS=1
##XYDATA=(XY..XY)
7707.2643,1.040e+4
##SCAN NUMBER=120
##BASE PEAK=1.0000
##BASE PEAK INTENSITY=7.260e+3
##RETENTION TIME=10.71
##TIC=7.260e+3
##NPOINTS=1
##XYDATA=(XY..XY)
7707.2643,7.260e+3
##SCAN NUMBER=121
##BASE PEAK=1.0000
##BASE PEAK INTENSITY=9.560e+3
##RETENTION TIME=10.80
##TIC=9.560e+3
##NPOINTS=1
##XYDATA=(XY..XY)
7707.2643,9.560e+3
##SCAN NUMBER=122
##BASE PEAK=1.0000
##BASE PEAK INTENSITY=8.200e+3
##RETENTION TIME=10.89
##TIC=8.200e+3
##NPOINTS=1
##XYDATA=(XY..XY)
7707.2643,8.200e+3
##SCAN NUMBER=123
##BASE PEAK=1.0000
##BASE PEAK INTENSITY=8.160e+3
##RETENTION TIME=10.98
##TIC=8.160e+3
##NPOINTS=1
##XYDATA=(XY..XY)
7707.2643,8.160e+3
##SCAN NUMBER=124
##BASE PEAK=1.0000
##BASE PEAK INTENSITY=7.920e+3
##RETENTION TIME=11.07
##TIC=7.920e+3
##NPOINTS=1
##XYDATA=(XY..XY)
7707.2643,7.920e+3
##SCAN NUMBER=125
##BASE PEAK=1.0000
##BASE PEAK INTENSITY=6.860e+3
##RETENTION TIME=11.16
##TIC=6.860e+3
##NPOINTS=1
##XYDATA=(XY..XY)
7707.2643,6.860e+3
##SCAN NUMBER=126
##BASE PEAK=1.0000
##BASE PEAK INTENSITY=8.480e+3
##RETENTION TIME=11.25
##TIC=8.480e+3
##NPOINTS=1
##XYDATA=(XY..XY)
7707.2643,8.480e+3
##SCAN NUMBER=127
##BASE PEAK=1.0000
##BASE PEAK INTENSITY=8.200e+3
##RETENTION TIME=11.34
##TIC=8.200e+3
##NPOINTS=1
##XYDATA=(XY..XY)
7707.2643,8.200e+3
##SCAN NUMBER=128
##BASE PEAK=1.0000
##BASE PEAK INTENSITY=8.980e+3
##RETENTION TIME=11.43
##TIC=8.980e+3
##NPOINTS=1
##XYDATA=(XY..XY)
7707.2643,8.980e+3
##SCAN NUMBER=129
##BASE PEAK=1.0000
##BASE PEAK INTENSITY=8.020e+3
##RETENTION TIME=11.52
##TIC=8.020e+3
##NPOINTS=1
##XYDATA=(XY..XY)
7707.2643,8.020e+3
##SCAN NUMBER=130
##BASE PEAK=1.0000
##BASE PEAK INTENSITY=8.460e+3
##RETENTION TIME=11.61
##TIC=8.460e+3
##NPOINTS=1
##XYDATA=(XY..XY)
7707.2643,8.460e+3
##SCAN NUMBER=131
##BASE PEAK=1.0000
##BASE PEAK INTENSITY=8.540e+3
##RETENTION TIME=11.70
##TIC=8.540e+3
##NPOINTS=1
##XYDATA=(XY..XY)
7707.2643,8.540e+3
##SCAN NUMBER=132
##BASE PEAK=1.0000
##BASE PEAK INTENSITY=8.640e+3
##RETENTION TIME=11.79
##TIC=8.640e+3
##NPOINTS=1
##XYDATA=(XY..XY)
7707.2643,8.640e+3
##SCAN NUMBER=133
##BASE PEAK=1.0000
##BASE PEAK INTENSITY=7.820e+3
##RETENTION TIME=11.88
##TIC=7.820e+3
##NPOINTS=1
##XYDATA=(XY..XY)
7707.2643,7.820e+3
##SCAN NUMBER=134
##BASE PEAK=1.0000
##BASE PEAK INTENSITY=7.400e+3
##RETENTION TIME=11.97
##TIC=7.400e+3
##NPOINTS=1
##XYDATA=(XY..XY)
7707.2643,7.400e+3
##SCAN NUMBER=135
##BASE PEAK=1.0000
##BASE PEAK INTENSITY=6.400e+3
##RETENTION TIME=12.06
##TIC=6.400e+3
##NPOINTS=1
##XYDATA=(XY..XY)
7707.2643,6.400e+3
##SCAN NUMBER=136
##BASE PEAK=1.0000
##BASE PEAK INTENSITY=6.680e+3
##RETENTION TIME=12.15
##TIC=6.680e+3
##NPOINTS=1
##XYDATA=(XY..XY)
7707.2643,6.680e+3
##SCAN NUMBER=137
##BASE PEAK=1.0000
##BASE PEAK INTENSITY=7.180e+3
##RETENTION TIME=12.24
##TIC=7.180e+3
##NPOINTS=1
##XYDATA=(XY..XY)
7707.2643,7.180e+3
##SCAN NUMBER=138
##BASE PEAK=1.0000
##BASE PEAK INTENSITY=7.940e+3
##RETENTION TIME=12.33
##TIC=7.940e+3
##NPOINTS=1
##XYDATA=(XY..XY)
7707.2643,7.940e+3
##SCAN NUMBER=139
##BASE PEAK=1.0000
##BASE PEAK INTENSITY=6.500e+3
##RETENTION TIME=12.42
##TIC=6.500e+3
##NPOINTS=1
##XYDATA=(XY..XY)
7707.2643,6.500e+3
##SCAN NUMBER=140
##BASE PEAK=1.0000
##BASE PEAK INTENSITY=6.800e+3
##RETENTION TIME=12.51
##TIC=6.800e+3
##NPOINTS=1
##XYDATA=(XY..XY)
7707.2643,6.800e+3
##SCAN NUMBER=141
##BASE PEAK=1.0000
##BASE PEAK INTENSITY=7.700e+3
##RETENTION TIME=12.60
##TIC=7.700e+3
##NPOINTS=1
##XYDATA=(XY..XY)
7707.2643,7.700e+3
##SCAN NUMBER=142
##BASE PEAK=1.0000
##BASE PEAK INTENSITY=6.060e+3
##RETENTION TIME=12.69
##TIC=6.060e+3
##NPOINTS=1
##XYDATA=(XY..XY)
7707.2643,6.060e+3
##SCAN NUMBER=143
##BASE PEAK=1.0000
##BASE PEAK INTENSITY=6.020e+3
##RETENTION TIME=12.78
##TIC=6.020e+3
##NPOINTS=1
##XYDATA=(XY..XY)
7707.2643,6.020e+3
##SCAN NUMBER=144
##BASE PEAK=1.0000
##BASE PEAK INTENSITY=5.880e+3
##RETENTION TIME=12.87
##TIC=5.880e+3
##NPOINTS=1
##XYDATA=(XY..XY)
7707.2643,5.880e+3
##SCAN NUMBER=145
##BASE PEAK=1.0000
##BASE PEAK INTENSITY=5.860e+3
##RETENTION TIME=12.96
##TIC=5.860e+3
##NPOINTS=1
##XYDATA=(XY..XY)
7707.2643,5.860e+3
##SCAN NUMBER=146
##BASE PEAK=1.0000
##BASE PEAK INTENSITY=5.040e+3
##RETENTION TIME=13.05
##TIC=5.040e+3
##NPOINTS=1
##XYDATA=(XY..XY)
7707.2643,5.040e+3
##SCAN NUMBER=147
##BASE PEAK=1.0000
##BASE PEAK INTENSITY=6.020e+3
##RETENTION TIME=13.14
##TIC=6.020e+3
##NPOINTS=1
##XYDATA=(XY..XY)
7707.2643,6.020e+3
##SCAN NUMBER=148
##BASE PEAK=1.0000
##BASE PEAK INTENSITY=5.440e+3
##RETENTION TIME=13.23
##TIC=5.440e+3
##NPOINTS=1
##XYDATA=(XY..XY)
7707.2643,5.440e+3
##SCAN NUMBER=149
##BASE PEAK=1.0000
##BASE PEAK INTENSITY=4.920e+3
##RETENTION TIME=13.32
##TIC=4.920e+3
##NPOINTS=1
##XYDATA=(XY..XY)
7707.2643,4.920e+3
##SCAN NUMBER=150
##BASE PEAK=1.0000
##BASE PEAK INTENSITY=6.420e+3
##RETENTION TIME=13.41
##TIC=6.420e+3
##NPOINTS=1
##XYDATA=(XY..XY)
7707.2643,6.420e+3
##SCAN NUMBER=151
##BASE PEAK=1.0000
##BASE PEAK INTENSITY=5.440e+3
##RETENTION TIME=13.50
##TIC=5.440e+3
##NPOINTS=1
##XYDATA=(XY..XY)
7707.2643,5.440e+3
##SCAN NUMBER=152
##BASE PEAK=1.0000
##BASE PEAK INTENSITY=6.700e+3
##RETENTION TIME=13.59
##TIC=6.700e+3
##NPOINTS=1
##XYDATA=(XY..XY)
7707.2643,6.700e+3
##SCAN NUMBER=153
##BASE PEAK=1.0000
##BASE PEAK INTENSITY=6.220e+3
##RETENTION TIME=13.68
##TIC=6.220e+3
##NPOINTS=1
##XYDATA=(XY..XY)
7707.2643,6.220e+3
##SCAN NUMBER=154
##BASE PEAK=1.0000
##BASE PEAK INTENSITY=5.940e+3
##RETENTION TIME=13.77
##TIC=5.940e+3
##NPOINTS=1
##XYDATA=(XY..XY)
7707.2643,5.940e+3
##SCAN NUMBER=155
##BASE PEAK=1.0000
##BASE PEAK INTENSITY=4.960e+3
##RETENTION TIME=13.86
##TIC=4.960e+3
##NPOINTS=1
##XYDATA=(XY..XY)
7707.2643,4.960e+3
##SCAN NUMBER=156
##BASE PEAK=1.0000
##BASE PEAK INTENSITY=4.360e+3
##RETENTION TIME=13.95
##TIC=4.360e+3
##NPOINTS=1
##XYDATA=(XY..XY)
7707.2643,4.360e+3
##SCAN NUMBER=157
##BASE PEAK=1.0000
##BASE PEAK INTENSITY=3.140e+3
##RETENTION TIME=14.04
##TIC=3.140e+3
##NPOINTS=1
##XYDATA=(XY..XY)
7707.2643,3.140e+3
##SCAN NUMBER=158
##BASE PEAK=1.0000
##BASE PEAK INTENSITY=4.240e+3
##RETENTION TIME=14.13
##TIC=4.240e+3
##NPOINTS=1
##XYDATA=(XY..XY)
7707.2643,4.240e+3
##SCAN NUMBER=159
##BASE PEAK=1.0000
##BASE PEAK INTENSITY=4.060e+3
##RETENTION TIME=14.22
##TIC=4.060e+3
##NPOINTS=1
##XYDATA=(XY..XY)
7707.2643,4.060e+3
##SCAN NUMBER=160
##BASE PEAK=1.0000
##BASE PEAK INTENSITY=4.340e+3
##RETENTION TIME=14.31
##TIC=4.340e+3
##NPOINTS=1
##XYDATA=(XY..XY)
7707.2643,4.340e+3
##SCAN NUMBER=161
##BASE PEAK=1.0000
##BASE PEAK INTENSITY=3.800e+3
##RETENTION TIME=14.40
##TIC=3.800e+3
##NPOINTS=1
##XYDATA=(XY..XY)
7707.2643,3.800e+3
##SCAN NUMBER=162
##BASE PEAK=1.0000
##BASE PEAK INTENSITY=3.600e+3
##RETENTION TIME=14.49
##TIC=3.600e+3
##NPOINTS=1
##XYDATA=(XY..XY)
7707.2643,3.600e+3
##SCAN NUMBER=163
##BASE PEAK=1.0000
##BASE PEAK INTENSITY=4.460e+3
##RETENTION TIME=14.58
##TIC=4.460e+3
##NPOINTS=1
##XYDATA=(XY..XY)
7707.2643,4.460e+3
##SCAN NUMBER=164
##BASE PEAK=1.0000
##BASE PEAK INTENSITY=3.900e+3
##RETENTION TIME=14.67
##TIC=3.900e+3
##NPOINTS=1
##XYDATA=(XY..XY)
7707.2643,3.900e+3
##SCAN NUMBER=165
##BASE PEAK=1.0000
##BASE PEAK INTENSITY=4.380e+3
##RETENTION TIME=14.76
##TIC=4.380e+3
##NPOINTS=1
##XYDATA=(XY..XY)
7707.2643,4.380e+3
##SCAN NUMBER=166
##BASE PEAK=1.0000
##BASE PEAK INTENSITY=4.060e+3
##RETENTION TIME=14.85
##TIC=4.060e+3
##NPOINTS=1
##XYDATA=(XY..XY)
7707.2643,4.060e+3
##SCAN NUMBER=167
##BASE PEAK=1.0000
##BASE PEAK INTENSITY=2.900e+3
##RETENTION TIME=14.94
##TIC=2.900e+3
##NPOINTS=1
##XYDATA=(XY..XY)
7707.2643,2.900e+3
##SCAN NUMBER=168
##BASE PEAK=1.0000
##BASE PEAK INTENSITY=3.520e+3
##RETENTION TIME=15.03
##TIC=3.520e+3
##NPOINTS=1
##XYDATA=(XY..XY)
7707.2643,3.520e+3
##SCAN NUMBER=169
##BASE PEAK=1.0000
##BASE PEAK INTENSITY=2.420e+3
##RETENTION TIME=15.12
##TIC=2.420e+3
##NPOINTS=1
##XYDATA=(XY..XY)
7707.2643,2.420e+3
##SCAN NUMBER=170
##BASE PEAK=1.0000
##BASE PEAK INTENSITY=2.380e+3
##RETENTION TIME=15.21
##TIC=2.380e+3
##NPOINTS=1
##XYDATA=(XY..XY)
7707.2643,2.380e+3
##SCAN NUMBER=171
##BASE PEAK=1.0000
##BASE PEAK INTENSITY=2.500e+3
##RETENTION TIME=15.30
##TIC=2.500e+3
##NPOINTS=1
##XYDATA=(XY..XY)
7707.2643,2.500e+3
##SCAN NUMBER=172
##BASE PEAK=1.0000
##BASE PEAK INTENSITY=2.100e+3
##RETENTION TIME=15.39
##TIC=2.100e+3
##NPOINTS=1
##XYDATA=(XY..XY)
7707.2643,2.100e+3
##SCAN NUMBER=173
##BASE PEAK=1.0000
##BASE PEAK INTENSITY=3.100e+3
##RETENTION TIME=15.48
##TIC=3.100e+3
##NPOINTS=1
##XYDATA=(XY..XY)
7707.2643,3.100e+3
##SCAN NUMBER=174
##BASE PEAK=1.0000
##BASE PEAK INTENSITY=3.160e+3
##RETENTION TIME=15.57
##TIC=3.160e+3
##NPOINTS=1
##XYDATA=(XY..XY)
7707.2643,3.160e+3
##SCAN NUMBER=175
##BASE PEAK=1.0000
##BASE PEAK INTENSITY=2.180e+3
##RETENTION TIME=15.66
##TIC=2.180e+3
##NPOINTS=1
##XYDATA=(XY..XY)
7707.2643,2.180e+3
##SCAN NUMBER=176
##BASE PEAK=1.0000
##BASE PEAK INTENSITY=2.720e+3
##RETENTION TIME=15.75
##TIC=2.720e+3
##NPOINTS=1
##XYDATA=(XY..XY)
7707.2643,2.720e+3
##SCAN NUMBER=177
##BASE PEAK=1.0000
##BASE PEAK INTENSITY=2.060e+3
##RETENTION TIME=15.84
##TIC=2.060e+3
##NPOINTS=1
##XYDATA=(XY..XY)
7707.2643,2.060e+3
##SCAN NUMBER=178
##BASE PEAK=1.0000
##BASE PEAK INTENSITY=1.820e+3
##RETENTION TIME=15.93
##TIC=1.820e+3
##NPOINTS=1
##XYDATA=(XY..XY)
7707.2643,1.820e+3
##SCAN NUMBER=179
##BASE PEAK=1.0000
##BASE PEAK INTENSITY=1.400e+3
##RETENTION TIME=16.02
##TIC=1.400e+3
##NPOINTS=1
##XYDATA=(XY..XY)
7707.2643,1.400e+3
##SCAN NUMBER=180
##BASE PEAK=1.0000
##BASE PEAK INTENSITY=1.080e+3
##RETENTION TIME=16.11
##TIC=1.080e+3
##NPOINTS=1
##XYDATA=(XY..XY)
7707.2643,1.080e+3
##SCAN NUMBER=181
##BASE PEAK=1.0000
##BASE PEAK INTENSITY=1.260e+3
##RETENTION TIME=16.20
##TIC=1.260e+3
##NPOINTS=1
##XYDATA=(XY..XY)
7707.2643,1.260e+3
##SCAN NUMBER=182
##BASE PEAK=1.0000
##BASE PEAK INTENSITY=1.740e+3
##RETENTION TIME=16.29
##TIC=1.740e+3
##NPOINTS=1
##XYDATA=(XY..XY)
7707.2643,1.740e+3
##SCAN NUMBER=183
##BASE PEAK=1.0000
##BASE PEAK INTENSITY=1.860e+3
##RETENTION TIME=16.38
##TIC=1.860e+3
##NPOINTS=1
##XYDATA=(XY..XY)
7707.2643,1.860e+3
##SCAN NUMBER=184
##BASE PEAK=1.0000
##BASE PEAK INTENSITY=2.020e+3
##RETENTION TIME=16.47
##TIC=2.020e+3
##NPOINTS=1
##XYDATA=(XY..XY)
7707.2643,2.020e+3
##SCAN NUMBER=185
##BASE PEAK=1.0000
##BASE PEAK INTENSITY=1.580e+3
##RETENTION TIME=16.56
##TIC=1.580e+3
##NPOINTS=1
##XYDATA=(XY..XY)
7707.2643,1.580e+3
##SCAN NUMBER=186
##BASE PEAK=1.0000
##BASE PEAK INTENSITY=2.160e+3
##RETENTION TIME=16.65
##TIC=2.160e+3
##NPOINTS=1
##XYDATA=(XY..XY)
7707.2643,2.160e+3
##SCAN NUMBER=187
##BASE PEAK=1.0000
##BASE PEAK INTENSITY=1.780e+3
##RETENTION TIME=16.74
##TIC=1.780e+3
##NPOINTS=1
##XYDATA=(XY..XY)
7707.2643,1.780e+3
##SCAN NUMBER=188
##BASE PEAK=1.0000
##BASE PEAK INTENSITY=1.740e+3
##RETENTION TIME=16.83
##TIC=1.740e+3
##NPOINTS=1
##XYDATA=(XY..XY)
7707.2643,1.740e+3
##SCAN NUMBER=189
##BASE PEAK=1.0000
##BASE PEAK INTENSITY=1.460e+3
##RETENTION TIME=16.92
##TIC=1.460e+3
##NPOINTS=1
##XYDATA=(XY..XY)
7707.2643,1.460e+3
##SCAN NUMBER=190
##BASE PEAK=1.0000
##BASE PEAK INTENSITY=1.060e+3
##RETENTION TIME=17.01
##TIC=1.060e+3
##NPOINTS=1
##XYDATA=(XY..XY)
7707.2643,1.060e+3
##SCAN NUMBER=191
##BASE PEAK=1.0000
##BASE PEAK INTENSITY=1.180e+3
##RETENTION TIME=17.10
##TIC=1.180e+3
##NPOINTS=1
##XYDATA=(XY..XY)
7707.2643,1.180e+3
##SCAN NUMBER=192
##BASE PEAK=1.0000
##BASE PEAK INTENSITY=1.100e+3
##RETENTION TIME=17.19
##TIC=1.100e+3
##NPOINTS=1
##XYDATA=(XY..XY)
7707.2643,1.100e+3
##SCAN NUMBER=193
##BASE PEAK=1.0000
##BASE PEAK INTENSITY=1.300e+3
##RETENTION TIME=17.28
##TIC=1.300e+3
##NPOINTS=1
##XYDATA=(XY..XY)
7707.2643,1.300e+3
##SCAN NUMBER=194
##BASE PEAK=1.0000
##BASE PEAK INTENSITY=1.520e+3
##RETENTION TIME=17.37
##TIC=1.520e+3
##NPOINTS=1
##XYDATA=(XY..XY)
7707.2643,1.520e+3
##SCAN NUMBER=195
##BASE PEAK=1.0000
##BASE PEAK INTENSITY=1.740e+3
##RETENTION TIME=17.46
##TIC=1.740e+3
##NPOINTS=1
##XYDATA=(XY..XY)
7707.2643,1.740e+3
##SCAN NUMBER=196
##BASE PEAK=1.0000
##BASE PEAK INTENSITY=1.520e+3
##RETENTION TIME=17.55
##TIC=1.520e+3
##NPOINTS=1
##XYDATA=(XY..XY)
7707.2643,1.520e+3
##SCAN NUMBER=197
##BASE PEAK=1.0000
##BASE PEAK INTENSITY=1.860e+3
##RETENTION TIME=17.64
##TIC=1.860e+3
##NPOINTS=1
##XYDATA=(XY..XY)
7707.2643,1.860e+3
##SCAN NUMBER=198
##BASE PEAK=1.0000
##BASE PEAK INTENSITY=1.500e+3
##RETENTION TIME=17.73
##TIC=1.500e+3
##NPOINTS=1
##XYDATA=(XY..XY)
7707.2643,1.500e+3
##SCAN NUMBER=199
##BASE PEAK=1.0000
##BASE PEAK INTENSITY=2.220e+3
##RETENTION TIME=17.82
##TIC=2.220e+3
##NPOINTS=1
##XYDATA=(XY..XY)
7707.2643,2.220e+3
##SCAN NUMBER=200
##BASE PEAK=1.0000
##BASE PEAK INTENSITY=1.380e+3
##RETENTION TIME=17.91
##TIC=1.380e+3
##NPOINTS=1
##XYDATA=(XY..XY)
7707.2643,1.380e+3
##SCAN NUMBER=201
##BASE PEAK=1.0000
##BASE PEAK INTENSITY=1.820e+3
##RETENTION TIME=18.00
##TIC=1.820e+3
##NPOINTS=1
##XYDATA=(XY..XY)
7707.2643,1.820e+3
##END=
