##TITLE=TuneSampleName (TuneSampleID)
##JCAMP-DX=5.00
##DATA TYPE=MASS SPECTRUM
##DATA CLASS=PEAKTABLE
##DATE=N/A
##SOURCE REFERENCE=C:\Users\Desktop\DMS\1uM_b-GalCerC21_in_stdmixture\SV_3000_Neg.wiff
##OWNER=N/A
##IONIZATION MODE=Positive
##SPECTROMETER/DATA SYSTEM=SCIEX
##SCAN_RANGE=770.7,0.0
##XUNITS=m/z
##YUNITS=cps
##SCAN NUMBER=1
##BASE PEAK=1.0000
##BASE PEAK INTENSITY=0.000e+0
##RETENTION TIME=0.00
##TIC=0.000e+0
##NPOINTS=1
##XYDATA=(XY..XY)
7707.2643,0.000e+0
##SCAN NUMBER=2
##BASE PEAK=1.0000
##BASE PEAK INTENSITY=0.000e+0
##RETENTION TIME=0.09
##TIC=0.000e+0
##NPOINTS=1
##XYDATA=(XY..XY)
7707.2643,0.000e+0
##SCAN NUMBER=3
##BASE PEAK=1.0000
##BASE PEAK INTENSITY=0.000e+0
##RETENTION TIME=0.18
##TIC=0.000e+0
##NPOINTS=1
##XYDATA=(XY..XY)
7707.2643,0.000e+0
##SCAN NUMBER=4
##BASE PEAK=1.0000
##BASE PEAK INTENSITY=0.000e+0
##RETENTION TIME=0.27
##TIC=0.000e+0
##NPOINTS=1
##XYDATA=(XY..XY)
7707.2643,0.000e+0
##SCAN NUMBER=5
##BASE PEAK=1.0000
##BASE PEAK INTENSITY=0.000e+0
##RETENTION TIME=0.36
##TIC=0.000e+0
##NPOINTS=1
##XYDATA=(XY..XY)
7707.2643,0.000e+0
##SCAN NUMBER=6
##BASE PEAK=1.0000
##BASE PEAK INTENSITY=0.000e+0
##RETENTION TIME=0.45
##TIC=0.000e+0
##NPOINTS=1
##XYDATA=(XY..XY)
7707.2643,0.000e+0
##SCAN NUMBER=7
##BASE PEAK=1.0000
##BASE PEAK INTENSITY=0.000e+0
##RETENTION TIME=0.54
##TIC=0.000e+0
##NPOINTS=1
##XYDATA=(XY..XY)
7707.2643,0.000e+0
##SCAN NUMBER=8
##BASE PEAK=1.0000
##BASE PEAK INTENSITY=0.000e+0
##RETENTION TIME=0.63
##TIC=0.000e+0
##NPOINTS=1
##XYDATA=(XY..XY)
7707.2643,0.000e+0
##SCAN NUMBER=9
##BASE PEAK=1.0000
##BASE PEAK INTENSITY=0.000e+0
##RETENTION TIME=0.72
##TIC=0.000e+0
##NPOINTS=1
##XYDATA=(XY..XY)
7707.2643,0.000e+0
##SCAN NUMBER=10
##BASE PEAK=1.0000
##BASE PEAK INTENSITY=0.000e+0
##RETENTION TIME=0.81
##TIC=0.000e+0
##NPOINTS=1
##XYDATA=(XY..XY)
7707.2643,0.000e+0
##SCAN NUMBER=11
##BASE PEAK=1.0000
##BASE PEAK INTENSITY=0.000e+0
##RETENTION TIME=0.90
##TIC=0.000e+0
##NPOINTS=1
##XYDATA=(XY..XY)
7707.2643,0.000e+0
##SCAN NUMBER=12
##BASE PEAK=1.0000
##BASE PEAK INTENSITY=0.000e+0
##RETENTION TIME=0.99
##TIC=0.000e+0
##NPOINTS=1
##XYDATA=(XY..XY)
7707.2643,0.000e+0
##SCAN NUMBER=13
##BASE PEAK=1.0000
##BASE PEAK INTENSITY=0.000e+0
##RETENTION TIME=1.08
##TIC=0.000e+0
##NPOINTS=1
##XYDATA=(XY..XY)
7707.2643,0.000e+0
##SCAN NUMBER=14
##BASE PEAK=1.0000
##BASE PEAK INTENSITY=0.000e+0
##RETENTION TIME=1.17
##TIC=0.000e+0
##NPOINTS=1
##XYDATA=(XY..XY)
7707.2643,0.000e+0
##SCAN NUMBER=15
##BASE PEAK=1.0000
##BASE PEAK INTENSITY=0.000e+0
##RETENTION TIME=1.26
##TIC=0.000e+0
##NPOINTS=1
##XYDATA=(XY..XY)
7707.2643,0.000e+0
##SCAN NUMBER=16
##BASE PEAK=1.0000
##BASE PEAK INTENSITY=0.000e+0
##RETENTION TIME=1.35
##TIC=0.000e+0
##NPOINTS=1
##XYDATA=(XY..XY)
7707.2643,0.000e+0
##SCAN NUMBER=17
##BASE PEAK=1.0000
##BASE PEAK INTENSITY=0.000e+0
##RETENTION TIME=1.44
##TIC=0.000e+0
##NPOINTS=1
##XYDATA=(XY..XY)
7707.2643,0.000e+0
##SCAN NUMBER=18
##BASE PEAK=1.0000
##BASE PEAK INTENSITY=0.000e+0
##RETENTION TIME=1.53
##TIC=0.000e+0
##NPOINTS=1
##XYDATA=(XY..XY)
7707.2643,0.000e+0
##SCAN NUMBER=19
##BASE PEAK=1.0000
##BASE PEAK INTENSITY=0.000e+0
##RETENTION TIME=1.62
##TIC=0.000e+0
##NPOINTS=1
##XYDATA=(XY..XY)
7707.2643,0.000e+0
##SCAN NUMBER=20
##BASE PEAK=1.0000
##BASE PEAK INTENSITY=0.000e+0
##RETENTION TIME=1.71
##TIC=0.000e+0
##NPOINTS=1
##XYDATA=(XY..XY)
7707.2643,0.000e+0
##SCAN NUMBER=21
##BASE PEAK=1.0000
##BASE PEAK INTENSITY=0.000e+0
##RETENTION TIME=1.80
##TIC=0.000e+0
##NPOINTS=1
##XYDATA=(XY..XY)
7707.2643,0.000e+0
##SCAN NUMBER=22
##BASE PEAK=1.0000
##BASE PEAK INTENSITY=0.000e+0
##RETENTION TIME=1.89
##TIC=0.000e+0
##NPOINTS=1
##XYDATA=(XY..XY)
7707.2643,0.000e+0
##SCAN NUMBER=23
##BASE PEAK=1.0000
##BASE PEAK INTENSITY=0.000e+0
##RETENTION TIME=1.98
##TIC=0.000e+0
##NPOINTS=1
##XYDATA=(XY..XY)
7707.2643,0.000e+0
##SCAN NUMBER=24
##BASE PEAK=1.0000
##BASE PEAK INTENSITY=0.000e+0
##RETENTION TIME=2.07
##TIC=0.000e+0
##NPOINTS=1
##XYDATA=(XY..XY)
7707.2643,0.000e+0
##SCAN NUMBER=25
##BASE PEAK=1.0000
##BASE PEAK INTENSITY=0.000e+0
##RETENTION TIME=2.16
##TIC=0.000e+0
##NPOINTS=1
##XYDATA=(XY..XY)
7707.2643,0.000e+0
##SCAN NUMBER=26
##BASE PEAK=1.0000
##BASE PEAK INTENSITY=0.000e+0
##RETENTION TIME=2.25
##TIC=0.000e+0
##NPOINTS=1
##XYDATA=(XY..XY)
7707.2643,0.000e+0
##SCAN NUMBER=27
##BASE PEAK=1.0000
##BASE PEAK INTENSITY=0.000e+0
##RETENTION TIME=2.34
##TIC=0.000e+0
##NPOINTS=1
##XYDATA=(XY..XY)
7707.2643,0.000e+0
##SCAN NUMBER=28
##BASE PEAK=1.0000
##BASE PEAK INTENSITY=0.000e+0
##RETENTION TIME=2.43
##TIC=0.000e+0
##NPOINTS=1
##XYDATA=(XY..XY)
7707.2643,0.000e+0
##SCAN NUMBER=29
##BASE PEAK=1.0000
##BASE PEAK INTENSITY=0.000e+0
##RETENTION TIME=2.52
##TIC=0.000e+0
##NPOINTS=1
##XYDATA=(XY..XY)
7707.2643,0.000e+0
##SCAN NUMBER=30
##BASE PEAK=1.0000
##BASE PEAK INTENSITY=0.000e+0
##RETENTION TIME=2.61
##TIC=0.000e+0
##NPOINTS=1
##XYDATA=(XY..XY)
7707.2643,0.000e+0
##SCAN NUMBER=31
##BASE PEAK=1.0000
##BASE PEAK INTENSITY=0.000e+0
##RETENTION TIME=2.70
##TIC=0.000e+0
##NPOINTS=1
##XYDATA=(XY..XY)
7707.2643,0.000e+0
##SCAN NUMBER=32
##BASE PEAK=1.0000
##BASE PEAK INTENSITY=0.000e+0
##RETENTION TIME=2.79
##TIC=0.000e+0
##NPOINTS=1
##XYDATA=(XY..XY)
7707.2643,0.000e+0
##SCAN NUMBER=33
##BASE PEAK=1.0000
##BASE PEAK INTENSITY=0.000e+0
##RETENTION TIME=2.88
##TIC=0.000e+0
##NPOINTS=1
##XYDATA=(XY..XY)
7707.2643,0.000e+0
##SCAN NUMBER=34
##BASE PEAK=1.0000
##BASE PEAK INTENSITY=0.000e+0
##RETENTION TIME=2.97
##TIC=0.000e+0
##NPOINTS=1
##XYDATA=(XY..XY)
7707.2643,0.000e+0
##SCAN NUMBER=35
##BASE PEAK=1.0000
##BASE PEAK INTENSITY=0.000e+0
##RETENTION TIME=3.06
##TIC=0.000e+0
##NPOINTS=1
##XYDATA=(XY..XY)
7707.2643,0.000e+0
##SCAN NUMBER=36
##BASE PEAK=1.0000
##BASE PEAK INTENSITY=0.000e+0
##RETENTION TIME=3.15
##TIC=0.000e+0
##NPOINTS=1
##XYDATA=(XY..XY)
7707.2643,0.000e+0
##SCAN NUMBER=37
##BASE PEAK=1.0000
##BASE PEAK INTENSITY=0.000e+0
##RETENTION TIME=3.24
##TIC=0.000e+0
##NPOINTS=1
##XYDATA=(XY..XY)
7707.2643,0.000e+0
##SCAN NUMBER=38
##BASE PEAK=1.0000
##BASE PEAK INTENSITY=0.000e+0
##RETENTION TIME=3.33
##TIC=0.000e+0
##NPOINTS=1
##XYDATA=(XY..XY)
7707.2643,0.000e+0
##SCAN NUMBER=39
##BASE PEAK=1.0000
##BASE PEAK INTENSITY=0.000e+0
##RETENTION TIME=3.42
##TIC=0.000e+0
##NPOINTS=1
##XYDATA=(XY..XY)
7707.2643,0.000e+0
##SCAN NUMBER=40
##BASE PEAK=1.0000
##BASE PEAK INTENSITY=0.000e+0
##RETENTION TIME=3.51
##TIC=0.000e+0
##NPOINTS=1
##XYDATA=(XY..XY)
7707.2643,0.000e+0
##SCAN NUMBER=41
##BASE PEAK=1.0000
##BASE PEAK INTENSITY=2.000e+1
##RETENTION TIME=3.60
##TIC=2.000e+1
##NPOINTS=1
##XYDATA=(XY..XY)
7707.2643,2.000e+1
##SCAN NUMBER=42
##BASE PEAK=1.0000
##BASE PEAK INTENSITY=0.000e+0
##RETENTION TIME=3.69
##TIC=0.000e+0
##NPOINTS=1
##XYDATA=(XY..XY)
7707.2643,0.000e+0
##SCAN NUMBER=43
##BASE PEAK=1.0000
##BASE PEAK INTENSITY=6.000e+1
##RETENTION TIME=3.78
##TIC=6.000e+1
##NPOINTS=1
##XYDATA=(XY..XY)
7707.2643,6.000e+1
##SCAN NUMBER=44
##BASE PEAK=1.0000
##BASE PEAK INTENSITY=4.000e+1
##RETENTION TIME=3.87
##TIC=4.000e+1
##NPOINTS=1
##XYDATA=(XY..XY)
7707.2643,4.000e+1
##SCAN NUMBER=45
##BASE PEAK=1.0000
##BASE PEAK INTENSITY=1.400e+2
##RETENTION TIME=3.96
##TIC=1.400e+2
##NPOINTS=1
##XYDATA=(XY..XY)
7707.2643,1.400e+2
##SCAN NUMBER=46
##BASE PEAK=1.0000
##BASE PEAK INTENSITY=1.400e+2
##RETENTION TIME=4.05
##TIC=1.400e+2
##NPOINTS=1
##XYDATA=(XY..XY)
7707.2643,1.400e+2
##SCAN NUMBER=47
##BASE PEAK=1.0000
##BASE PEAK INTENSITY=9.000e+2
##RETENTION TIME=4.14
##TIC=9.000e+2
##NPOINTS=1
##XYDATA=(XY..XY)
7707.2643,9.000e+2
##SCAN NUMBER=48
##BASE PEAK=1.0000
##BASE PEAK INTENSITY=3.980e+3
##RETENTION TIME=4.23
##TIC=3.980e+3
##NPOINTS=1
##XYDATA=(XY..XY)
7707.2643,3.980e+3
##SCAN NUMBER=49
##BASE PEAK=1.0000
##BASE PEAK INTENSITY=6.040e+3
##RETENTION TIME=4.32
##TIC=6.040e+3
##NPOINTS=1
##XYDATA=(XY..XY)
7707.2643,6.040e+3
##SCAN NUMBER=50
##BASE PEAK=1.0000
##BASE PEAK INTENSITY=9.540e+3
##RETENTION TIME=4.41
##TIC=9.540e+3
##NPOINTS=1
##XYDATA=(XY..XY)
7707.2643,9.540e+3
##SCAN NUMBER=51
##BASE PEAK=1.0000
##BASE PEAK INTENSITY=1.030e+4
##RETENTION TIME=4.50
##TIC=1.030e+4
##NPOINTS=1
##XYDATA=(XY..XY)
7707.2643,1.030e+4
##SCAN NUMBER=52
##BASE PEAK=1.0000
##BASE PEAK INTENSITY=1.060e+4
##RETENTION TIME=4.59
##TIC=1.060e+4
##NPOINTS=1
##XYDATA=(XY..XY)
7707.2643,1.060e+4
##SCAN NUMBER=53
##BASE PEAK=1.0000
##BASE PEAK INTENSITY=8.480e+3
##RETENTION TIME=4.68
##TIC=8.480e+3
##NPOINTS=1
##XYDATA=(XY..XY)
7707.2643,8.480e+3
##SCAN NUMBER=54
##BASE PEAK=1.0000
##BASE PEAK INTENSITY=6.800e+3
##RETENTION TIME=4.77
##TIC=6.800e+3
##NPOINTS=1
##XYDATA=(XY..XY)
7707.2643,6.800e+3
##SCAN NUMBER=55
##BASE PEAK=1.0000
##BASE PEAK INTENSITY=3.540e+3
##RETENTION TIME=4.86
##TIC=3.540e+3
##NPOINTS=1
##XYDATA=(XY..XY)
7707.2643,3.540e+3
##SCAN NUMBER=56
##BASE PEAK=1.0000
##BASE PEAK INTENSITY=2.000e+3
##RETENTION TIME=4.95
##TIC=2.000e+3
##NPOINTS=1
##XYDATA=(XY..XY)
7707.2643,2.000e+3
##SCAN NUMBER=57
##BASE PEAK=1.0000
##BASE PEAK INTENSITY=1.180e+3
##RETENTION TIME=5.04
##TIC=1.180e+3
##NPOINTS=1
##XYDATA=(XY..XY)
7707.2643,1.180e+3
##SCAN NUMBER=58
##BASE PEAK=1.0000
##BASE PEAK INTENSITY=4.000e+2
##RETENTION TIME=5.13
##TIC=4.000e+2
##NPOINTS=1
##XYDATA=(XY..XY)
7707.2643,4.000e+2
##SCAN NUMBER=59
##BASE PEAK=1.0000
##BASE PEAK INTENSITY=4.400e+2
##RETENTION TIME=5.22
##TIC=4.400e+2
##NPOINTS=1
##XYDATA=(XY..XY)
7707.2643,4.400e+2
##SCAN NUMBER=60
##BASE PEAK=1.0000
##BASE PEAK INTENSITY=2.800e+2
##RETENTION TIME=5.31
##TIC=2.800e+2
##NPOINTS=1
##XYDATA=(XY..XY)
7707.2643,2.800e+2
##SCAN NUMBER=61
##BASE PEAK=1.0000
##BASE PEAK INTENSITY=2.000e+1
##RETENTION TIME=5.40
##TIC=2.000e+1
##NPOINTS=1
##XYDATA=(XY..XY)
7707.2643,2.000e+1
##SCAN NUMBER=62
##BASE PEAK=1.0000
##BASE PEAK INTENSITY=1.200e+2
##RETENTION TIME=5.49
##TIC=1.200e+2
##NPOINTS=1
##XYDATA=(XY..XY)
7707.2643,1.200e+2
##SCAN NUMBER=63
##BASE PEAK=1.0000
##BASE PEAK INTENSITY=0.000e+0
##RETENTION TIME=5.58
##TIC=0.000e+0
##NPOINTS=1
##XYDATA=(XY..XY)
7707.2643,0.000e+0
##SCAN NUMBER=64
##BASE PEAK=1.0000
##BASE PEAK INTENSITY=2.000e+1
##RETENTION TIME=5.67
##TIC=2.000e+1
##NPOINTS=1
##XYDATA=(XY..XY)
7707.2643,2.000e+1
##SCAN NUMBER=65
##BASE PEAK=1.0000
##BASE PEAK INTENSITY=0.000e+0
##RETENTION TIME=5.76
##TIC=0.000e+0
##NPOINTS=1
##XYDATA=(XY..XY)
7707.2643,0.000e+0
##SCAN NUMBER=66
##BASE PEAK=1.0000
##BASE PEAK INTENSITY=0.000e+0
##RETENTION TIME=5.85
##TIC=0.000e+0
##NPOINTS=1
##XYDATA=(XY..XY)
7707.2643,0.000e+0
##SCAN NUMBER=67
##BASE PEAK=1.0000
##BASE PEAK INTENSITY=0.000e+0
##RETENTION TIME=5.94
##TIC=0.000e+0
##NPOINTS=1
##XYDATA=(XY..XY)
7707.2643,0.000e+0
##SCAN NUMBER=68
##BASE PEAK=1.0000
##BASE PEAK INTENSITY=0.000e+0
##RETENTION TIME=6.03
##TIC=0.000e+0
##NPOINTS=1
##XYDATA=(XY..XY)
7707.2643,0.000e+0
##SCAN NUMBER=69
##BASE PEAK=1.0000
##BASE PEAK INTENSITY=0.000e+0
##RETENTION TIME=6.12
##TIC=0.000e+0
##NPOINTS=1
##XYDATA=(XY..XY)
7707.2643,0.000e+0
##SCAN NUMBER=70
##BASE PEAK=1.0000
##BASE PEAK INTENSITY=0.000e+0
##RETENTION TIME=6.21
##TIC=0.000e+0
##NPOINTS=1
##XYDATA=(XY..XY)
7707.2643,0.000e+0
##SCAN NUMBER=71
##BASE PEAK=1.0000
##BASE PEAK INTENSITY=0.000e+0
##RETENTION TIME=6.30
##TIC=0.000e+0
##NPOINTS=1
##XYDATA=(XY..XY)
7707.2643,0.000e+0
##SCAN NUMBER=72
##BASE PEAK=1.0000
##BASE PEAK INTENSITY=0.000e+0
##RETENTION TIME=6.39
##TIC=0.000e+0
##NPOINTS=1
##XYDATA=(XY..XY)
7707.2643,0.000e+0
##SCAN NUMBER=73
##BASE PEAK=1.0000
##BASE PEAK INTENSITY=0.000e+0
##RETENTION TIME=6.48
##TIC=0.000e+0
##NPOINTS=1
##XYDATA=(XY..XY)
7707.2643,0.000e+0
##SCAN NUMBER=74
##BASE PEAK=1.0000
##BASE PEAK INTENSITY=0.000e+0
##RETENTION TIME=6.57
##TIC=0.000e+0
##NPOINTS=1
##XYDATA=(XY..XY)
7707.2643,0.000e+0
##SCAN NUMBER=75
##BASE PEAK=1.0000
##BASE PEAK INTENSITY=0.000e+0
##RETENTION TIME=6.66
##TIC=0.000e+0
##NPOINTS=1
##XYDATA=(XY..XY)
7707.2643,0.000e+0
##SCAN NUMBER=76
##BASE PEAK=1.0000
##BASE PEAK INTENSITY=0.000e+0
##RETENTION TIME=6.75
##TIC=0.000e+0
##NPOINTS=1
##XYDATA=(XY..XY)
7707.2643,0.000e+0
##SCAN NUMBER=77
##BASE PEAK=1.0000
##BASE PEAK INTENSITY=0.000e+0
##RETENTION TIME=6.84
##TIC=0.000e+0
##NPOINTS=1
##XYDATA=(XY..XY)
7707.2643,0.000e+0
##SCAN NUMBER=78
##BASE PEAK=1.0000
##BASE PEAK INTENSITY=0.000e+0
##RETENTION TIME=6.93
##TIC=0.000e+0
##NPOINTS=1
##XYDATA=(XY..XY)
7707.2643,0.000e+0
##SCAN NUMBER=79
##BASE PEAK=1.0000
##BASE PEAK INTENSITY=0.000e+0
##RETENTION TIME=7.02
##TIC=0.000e+0
##NPOINTS=1
##XYDATA=(XY..XY)
7707.2643,0.000e+0
##SCAN NUMBER=80
##BASE PEAK=1.0000
##BASE PEAK INTENSITY=0.000e+0
##RETENTION TIME=7.11
##TIC=0.000e+0
##NPOINTS=1
##XYDATA=(XY..XY)
7707.2643,0.000e+0
##SCAN NUMBER=81
##BASE PEAK=1.0000
##BASE PEAK INTENSITY=0.000e+0
##RETENTION TIME=7.20
##TIC=0.000e+0
##NPOINTS=1
##XYDATA=(XY..XY)
7707.2643,0.000e+0
##SCAN NUMBER=82
##BASE PEAK=1.0000
##BASE PEAK INTENSITY=0.000e+0
##RETENTION TIME=7.29
##TIC=0.000e+0
##NPOINTS=1
##XYDATA=(XY..XY)
7707.2643,0.000e+0
##SCAN NUMBER=83
##BASE PEAK=1.0000
##BASE PEAK INTENSITY=0.000e+0
##RETENTION TIME=7.38
##TIC=0.000e+0
##NPOINTS=1
##XYDATA=(XY..XY)
7707.2643,0.000e+0
##SCAN NUMBER=84
##BASE PEAK=1.0000
##BASE PEAK INTENSITY=0.000e+0
##RETENTION TIME=7.47
##TIC=0.000e+0
##NPOINTS=1
##XYDATA=(XY..XY)
7707.2643,0.000e+0
##SCAN NUMBER=85
##BASE PEAK=1.0000
##BASE PEAK INTENSITY=0.000e+0
##RETENTION TIME=7.56
##TIC=0.000e+0
##NPOINTS=1
##XYDATA=(XY..XY)
7707.2643,0.000e+0
##SCAN NUMBER=86
##BASE PEAK=1.0000
##BASE PEAK INTENSITY=0.000e+0
##RETENTION TIME=7.65
##TIC=0.000e+0
##NPOINTS=1
##XYDATA=(XY..XY)
7707.2643,0.000e+0
##SCAN NUMBER=87
##BASE PEAK=1.0000
##BASE PEAK INTENSITY=0.000e+0
##RETENTION TIME=7.74
##TIC=0.000e+0
##NPOINTS=1
##XYDATA=(XY..XY)
7707.2643,0.000e+0
##SCAN NUMBER=88
##BASE PEAK=1.0000
##BASE PEAK INTENSITY=0.000e+0
##RETENTION TIME=7.83
##TIC=0.000e+0
##NPOINTS=1
##XYDATA=(XY..XY)
7707.2643,0.000e+0
##SCAN NUMBER=89
##BASE PEAK=1.0000
##BASE PEAK INTENSITY=0.000e+0
##RETENTION TIME=7.92
##TIC=0.000e+0
##NPOINTS=1
##XYDATA=(XY..XY)
7707.2643,0.000e+0
##SCAN NUMBER=90
##BASE PEAK=1.0000
##BASE PEAK INTENSITY=0.000e+0
##RETENTION TIME=8.01
##TIC=0.000e+0
##NPOINTS=1
##XYDATA=(XY..XY)
7707.2643,0.000e+0
##SCAN NUMBER=91
##BASE PEAK=1.0000
##BASE PEAK INTENSITY=0.000e+0
##RETENTION TIME=8.10
##TIC=0.000e+0
##NPOINTS=1
##XYDATA=(XY..XY)
7707.2643,0.000e+0
##SCAN NUMBER=92
##BASE PEAK=1.0000
##BASE PEAK INTENSITY=0.000e+0
##RETENTION TIME=8.19
##TIC=0.000e+0
##NPOINTS=1
##XYDATA=(XY..XY)
7707.2643,0.000e+0
##SCAN NUMBER=93
##BASE PEAK=1.0000
##BASE PEAK INTENSITY=0.000e+0
##RETENTION TIME=8.28
##TIC=0.000e+0
##NPOINTS=1
##XYDATA=(XY..XY)
7707.2643,0.000e+0
##SCAN NUMBER=94
##BASE PEAK=1.0000
##BASE PEAK INTENSITY=0.000e+0
##RETENTION TIME=8.37
##TIC=0.000e+0
##NPOINTS=1
##XYDATA=(XY..XY)
7707.2643,0.000e+0
##SCAN NUMBER=95
##BASE PEAK=1.0000
##BASE PEAK INTENSITY=0.000e+0
##RETENTION TIME=8.46
##TIC=0.000e+0
##NPOINTS=1
##XYDATA=(XY..XY)
7707.2643,0.000e+0
##SCAN NUMBER=96
##BASE PEAK=1.0000
##BASE PEAK INTENSITY=0.000e+0
##RETENTION TIME=8.55
##TIC=0.000e+0
##NPOINTS=1
##XYDATA=(XY..XY)
7707.2643,0.000e+0
##SCAN NUMBER=97
##BASE PEAK=1.0000
##BASE PEAK INTENSITY=0.000e+0
##RETENTION TIME=8.64
##TIC=0.000e+0
##NPOINTS=1
##XYDATA=(XY..XY)
7707.2643,0.000e+0
##SCAN NUMBER=98
##BASE PEAK=1.0000
##BASE PEAK INTENSITY=0.000e+0
##RETENTION TIME=8.73
##TIC=0.000e+0
##NPOINTS=1
##XYDATA=(XY..XY)
7707.2643,0.000e+0
##SCAN NUMBER=99
##BASE PEAK=1.0000
##BASE PEAK INTENSITY=0.000e+0
##RETENTION TIME=8.82
##TIC=0.000e+0
##NPOINTS=1
##XYDATA=(XY..XY)
7707.2643,0.000e+0
##SCAN NUMBER=100
##BASE PEAK=1.0000
##BASE PEAK INTENSITY=0.000e+0
##RETENTION TIME=8.91
##TIC=0.000e+0
##NPOINTS=1
##XYDATA=(XY..XY)
7707.2643,0.000e+0
##SCAN NUMBER=101
##BASE PEAK=1.0000
##BASE PEAK INTENSITY=0.000e+0
##RETENTION TIME=9.00
##TIC=0.000e+0
##NPOINTS=1
##XYDATA=(XY..XY)
7707.2643,0.000e+0
##END=
